c n orig vars 53
p cnf 83 132
-73 0
54 -4 0
54 -19 0
54 -18 0
54 -41 0
-54 4 19 18 41 0
55 -42 0
55 -39 0
55 -40 0
55 -45 0
-55 42 39 40 45 0
-56 27 0
-56 61 0
-56 60 0
56 -27 -61 -60 0
57 -7 0
57 -6 0
57 -5 0
-57 7 6 5 0
58 -37 0
58 -43 0
58 -44 0
58 -78 0
58 -35 0
-58 37 43 44 78 35 0
-59 75 0
-59 26 0
-59 47 0
59 -75 -26 -47 0
-60 10 0
-60 9 0
-60 50 0
60 -10 -9 -50 0
61 -29 0
61 -49 0
61 -50 0
61 -11 0
-61 29 49 50 11 0
62 -63 0
62 -48 0
62 -21 0
-62 63 48 21 0
63 -20 0
63 -23 0
63 -22 0
-63 20 23 22 0
64 -15 0
64 -14 0
64 -17 0
64 -16 0
-64 15 14 17 16 0
65 -37 0
65 -33 0
65 -32 0
65 -64 0
65 -35 0
-65 37 33 32 64 35 0
-66 57 0
-66 54 0
-66 8 0
-66 55 0
66 -57 -54 -8 -55 0
67 -46 0
67 -62 0
-67 46 62 0
68 -58 0
68 -59 0
68 -56 0
-68 58 59 56 0
-69 68 0
-69 67 0
-69 66 0
69 -68 -67 -66 0
-70 36 0
-70 38 0
70 -36 -38 0
-71 65 0
-71 81 0
-71 80 0
71 -65 -81 -80 0
72 -71 0
72 -83 0
72 -82 0
-72 71 83 82 0
-73 72 0
-73 69 0
73 -72 -69 0
74 -29 0
74 -49 0
74 -50 0
74 -11 0
-74 29 49 50 11 0
75 -26 0
75 -76 0
75 -24 0
75 -28 0
75 -25 0
-75 26 76 24 28 25 0
-76 1 0
-76 51 0
-76 31 0
-76 52 0
76 -1 -51 -31 -52 0
77 -26 0
77 -76 0
77 -24 0
77 -28 0
77 -25 0
-77 26 76 24 28 25 0
78 -3 0
78 -14 0
78 -2 0
78 -16 0
-78 3 14 2 16 0
79 -53 0
79 -30 0
79 -13 0
-79 53 30 13 0
-80 27 0
-80 74 0
-80 60 0
80 -27 -74 -60 0
-81 77 0
-81 26 0
-81 76 0
81 -77 -26 -76 0
82 -70 0
82 -12 0
-82 70 12 0
-83 34 0
-83 79 0
83 -34 -79 0
